benchmarks_CP/INST_36x36/25/inst36x36_25_28.dzn
S=6;
start=[|
-1,	-1,	-1,	31,	-1,	-1,	33,	-1,	-1,	26,	18,	-1,	28,	-1,	-1,	-1,	-1,	-1,	-1,	-1,	-1,	-1,	5,	-1,	-1,	2,	9,	-1,	6,	-1,	-1,	-1,	-1,	-1,	-1,	16|
-1,	4,	15,	12,	-1,	-1,	-1,	-1,	-1,	-1,	-1,	-1,	-1,	-1,	-1,	-1,	-1,	-1,	-1,	-1,	-1,	-1,	-1,	-1,	-1,	-1,	29,	34,	17,	-1,	5,	-1,	28,	-1,	-1,	-1|
-1,	-1,	-1,	-1,	-1,	-1,	-1,	-1,	-1,	4,	-1,	-1,	-1,	-1,	25,	-1,	-1,	-1,	-1,	-1,	-1,	28,	-1,	-1,	-1,	-1,	-1,	-1,	-1,	3,	-1,	-1,	-1,	-1,	-1,	-1|
-1,	-1,	13,	11,	-1,	-1,	25,	-1,	36,	-1,	35,	-1,	9,	-1,	-1,	-1,	10,	-1,	-1,	-1,	-1,	-1,	26,	12,	-1,	-1,	-1,	-1,	-1,	-1,	-1,	23,	-1,	-1,	8,	-1|
-1,	20,	33,	7,	10,	-1,	-1,	-1,	-1,	-1,	28,	2,	-1,	27,	-1,	-1,	-1,	-1,	-1,	9,	-1,	23,	-1,	-1,	-1,	-1,	-1,	-1,	-1,	-1,	-1,	-1,	-1,	12,	11,	-1|
-1,	16,	-1,	-1,	-1,	29,	-1,	-1,	-1,	-1,	-1,	-1,	-1,	-1,	-1,	-1,	-1,	-1,	-1,	10,	19,	-1,	21,	-1,	-1,	-1,	-1,	-1,	-1,	-1,	22,	-1,	-1,	9,	-1,	-1|
-1,	-1,	-1,	-1,	-1,	-1,	-1,	-1,	-1,	14,	15,	31,	34,	-1,	-1,	30,	-1,	28,	-1,	-1,	-1,	-1,	-1,	6,	2,	-1,	-1,	20,	-1,	22,	-1,	-1,	-1,	17,	-1,	-1|
-1,	5,	-1,	-1,	-1,	-1,	-1,	-1,	-1,	27,	19,	-1,	6,	-1,	-1,	-1,	-1,	-1,	23,	14,	-1,	-1,	-1,	15,	-1,	-1,	12,	-1,	-1,	-1,	-1,	-1,	-1,	-1,	-1,	25|
-1,	24,	-1,	36,	-1,	-1,	4,	-1,	-1,	-1,	-1,	-1,	-1,	-1,	-1,	-1,	14,	33,	-1,	-1,	26,	-1,	-1,	-1,	-1,	-1,	-1,	8,	-1,	-1,	-1,	-1,	31,	-1,	-1,	-1|
-1,	-1,	-1,	-1,	-1,	-1,	-1,	-1,	-1,	-1,	10,	-1,	-1,	-1,	31,	-1,	26,	-1,	-1,	-1,	-1,	-1,	22,	-1,	-1,	-1,	34,	-1,	5,	-1,	35,	14,	-1,	-1,	-1,	-1|
-1,	-1,	-1,	21,	-1,	-1,	-1,	30,	25,	-1,	-1,	-1,	16,	-1,	12,	-1,	-1,	-1,	33,	-1,	-1,	-1,	-1,	-1,	-1,	4,	35,	-1,	-1,	-1,	-1,	-1,	-1,	-1,	-1,	-1|
-1,	-1,	-1,	-1,	15,	12,	-1,	-1,	-1,	-1,	-1,	-1,	-1,	-1,	8,	-1,	17,	-1,	-1,	-1,	-1,	-1,	-1,	7,	26,	14,	27,	-1,	21,	-1,	24,	-1,	-1,	-1,	-1,	-1|
-1,	-1,	10,	-1,	-1,	-1,	34,	-1,	-1,	3,	-1,	-1,	8,	-1,	-1,	-1,	-1,	32,	-1,	-1,	-1,	-1,	-1,	-1,	-1,	-1,	15,	-1,	27,	21,	-1,	-1,	33,	14,	-1,	-1|
19,	-1,	-1,	-1,	-1,	-1,	-1,	13,	-1,	29,	-1,	-1,	-1,	-1,	-1,	-1,	-1,	31,	30,	-1,	22,	-1,	-1,	-1,	-1,	-1,	-1,	-1,	-1,	-1,	-1,	-1,	-1,	-1,	-1,	-1|
-1,	-1,	-1,	-1,	-1,	-1,	-1,	17,	-1,	19,	-1,	-1,	-1,	-1,	-1,	22,	-1,	-1,	-1,	-1,	-1,	10,	2,	-1,	20,	16,	-1,	7,	33,	8,	25,	-1,	4,	-1,	-1,	26|
-1,	-1,	-1,	-1,	-1,	-1,	-1,	26,	-1,	24,	-1,	20,	7,	-1,	-1,	-1,	18,	-1,	-1,	33,	13,	-1,	-1,	-1,	-1,	-1,	-1,	-1,	23,	-1,	-1,	15,	-1,	-1,	-1,	-1|
-1,	-1,	-1,	-1,	-1,	22,	-1,	-1,	-1,	-1,	-1,	-1,	-1,	33,	-1,	-1,	-1,	-1,	4,	-1,	-1,	12,	-1,	31,	-1,	-1,	18,	-1,	-1,	-1,	-1,	-1,	2,	23,	-1,	-1|
-1,	-1,	-1,	13,	-1,	-1,	27,	-1,	-1,	9,	-1,	-1,	-1,	-1,	-1,	-1,	-1,	12,	-1,	-1,	-1,	-1,	-1,	-1,	-1,	-1,	-1,	-1,	-1,	-1,	-1,	-1,	-1,	-1,	-1,	-1|
27,	1,	32,	17,	-1,	21,	-1,	-1,	26,	-1,	-1,	-1,	-1,	-1,	-1,	-1,	-1,	-1,	-1,	-1,	-1,	13,	4,	-1,	-1,	-1,	-1,	-1,	-1,	-1,	-1,	-1,	-1,	-1,	-1,	6|
5,	-1,	3,	-1,	-1,	-1,	-1,	-1,	-1,	1,	-1,	-1,	-1,	-1,	-1,	21,	-1,	19,	-1,	26,	-1,	-1,	-1,	34,	28,	-1,	-1,	16,	-1,	-1,	-1,	-1,	-1,	-1,	-1,	-1|
-1,	-1,	-1,	-1,	-1,	-1,	6,	-1,	-1,	-1,	-1,	4,	-1,	-1,	22,	16,	-1,	-1,	14,	-1,	-1,	-1,	31,	-1,	23,	-1,	2,	-1,	19,	13,	-1,	-1,	-1,	-1,	-1,	-1|
-1,	-1,	-1,	-1,	11,	13,	30,	-1,	-1,	-1,	-1,	-1,	26,	-1,	-1,	-1,	-1,	27,	-1,	-1,	6,	-1,	10,	-1,	-1,	-1,	-1,	-1,	-1,	-1,	-1,	-1,	5,	16,	-1,	-1|
-1,	-1,	-1,	26,	-1,	-1,	-1,	19,	-1,	13,	11,	10,	-1,	-1,	-1,	-1,	-1,	25,	21,	-1,	-1,	-1,	29,	-1,	-1,	-1,	32,	-1,	-1,	34,	-1,	-1,	-1,	-1,	-1,	-1|
-1,	-1,	-1,	-1,	31,	-1,	7,	-1,	-1,	-1,	3,	36,	-1,	-1,	-1,	4,	20,	-1,	19,	8,	35,	-1,	-1,	-1,	-1,	-1,	-1,	-1,	-1,	-1,	32,	-1,	-1,	28,	-1,	30|
-1,	11,	-1,	-1,	-1,	-1,	-1,	-1,	-1,	-1,	-1,	-1,	15,	-1,	-1,	-1,	-1,	22,	-1,	-1,	-1,	4,	-1,	29,	8,	12,	5,	30,	-1,	-1,	-1,	34,	-1,	-1,	-1,	-1|
-1,	-1,	-1,	-1,	-1,	-1,	11,	-1,	-1,	22,	-1,	8,	-1,	-1,	-1,	-1,	3,	-1,	-1,	31,	23,	6,	-1,	33,	-1,	34,	-1,	-1,	35,	-1,	-1,	-1,	16,	-1,	-1,	-1|
-1,	-1,	-1,	-1,	-1,	-1,	-1,	16,	-1,	-1,	-1,	-1,	-1,	-1,	-1,	-1,	-1,	-1,	-1,	-1,	-1,	19,	-1,	36,	-1,	-1,	-1,	-1,	1,	23,	-1,	-1,	-1,	4,	35,	5|
-1,	-1,	-1,	-1,	-1,	-1,	-1,	-1,	4,	15,	-1,	12,	-1,	-1,	-1,	-1,	7,	-1,	-1,	-1,	-1,	24,	-1,	13,	-1,	-1,	-1,	-1,	-1,	-1,	-1,	-1,	-1,	-1,	-1,	-1|
-1,	-1,	22,	-1,	26,	-1,	-1,	9,	-1,	-1,	30,	-1,	36,	35,	-1,	-1,	16,	-1,	-1,	-1,	34,	5,	8,	-1,	14,	-1,	-1,	-1,	25,	11,	-1,	-1,	-1,	20,	-1,	13|
-1,	-1,	-1,	29,	17,	-1,	35,	-1,	-1,	-1,	-1,	-1,	-1,	-1,	-1,	-1,	-1,	-1,	-1,	-1,	-1,	-1,	-1,	30,	24,	-1,	-1,	-1,	26,	-1,	-1,	-1,	-1,	18,	14,	-1|
22,	-1,	-1,	-1,	23,	-1,	28,	-1,	1,	-1,	-1,	17,	-1,	-1,	-1,	13,	-1,	18,	-1,	32,	-1,	-1,	-1,	-1,	-1,	-1,	-1,	-1,	-1,	-1,	14,	-1,	-1,	-1,	29,	-1|
-1,	-1,	-1,	9,	-1,	-1,	-1,	-1,	-1,	-1,	-1,	22,	32,	-1,	-1,	2,	-1,	15,	8,	-1,	3,	-1,	-1,	21,	-1,	18,	-1,	-1,	29,	16,	-1,	-1,	-1,	-1,	-1,	-1|
-1,	-1,	-1,	32,	-1,	-1,	-1,	29,	-1,	16,	-1,	-1,	-1,	-1,	-1,	-1,	-1,	21,	-1,	-1,	-1,	-1,	-1,	-1,	-1,	-1,	-1,	-1,	-1,	-1,	10,	-1,	-1,	-1,	-1,	-1|
20,	21,	-1,	-1,	-1,	-1,	3,	-1,	-1,	-1,	-1,	-1,	-1,	8,	-1,	9,	4,	-1,	-1,	-1,	-1,	-1,	-1,	19,	17,	26,	-1,	-1,	-1,	-1,	-1,	-1,	15,	-1,	-1,	-1|
-1,	33,	-1,	18,	-1,	-1,	-1,	-1,	34,	7,	-1,	-1,	30,	-1,	-1,	-1,	-1,	-1,	-1,	-1,	-1,	-1,	-1,	-1,	-1,	-1,	-1,	-1,	-1,	-1,	8,	-1,	-1,	-1,	-1,	-1|
-1,	-1,	-1,	35,	13,	-1,	-1,	-1,	33,	-1,	2,	-1,	-1,	-1,	-1,	-1,	-1,	-1,	10,	-1,	-1,	29,	-1,	-1,	-1,	-1,	-1,	-1,	31,	-1,	-1,	5,	17,	19,	-1,	-1|];
